# Solution for model r3_t9_m6_2 Batch Number: 1
# Finished Task: 9 / 9
# Makespan: 468.0, Total Distance: 291.0, Total Time: 0.3585
# R O S F Batch
0 0 10 0.0 0.0 -1
1 1 3 0.0 0.0 -1
2 2 11 0.0 0.0 -1
3 1 9 222.0 252.0 0
4 2 8 410.0 432.0 0
5 0 -1 439.0 468.0 0
6 2 4 382.0 410.0 0
7 1 -1 410.0 430.0 0
8 2 -1 448.0 468.0 0
9 1 7 261.0 298.0 0
10 0 5 384.0 417.0 0
11 2 6 267.0 300.0 0
